n_res = 4;
rc = [ 13, 14, 13, 12 ];
n_tasks = 30;
d = [ 3, 8, 7, 5, 9, 9, 6, 1, 3, 8, 7, 4, 9, 8, 6, 8, 9, 2, 8, 1, 6, 4, 6, 9, 3, 9, 9, 10, 9, 9 ];
rr = [| 0, 0, 2, 0, 10, 0, 0, 0, 0, 0, 0, 0, 0, 0, 6, 9, 0, 0, 0, 4, 1, 8, 0, 0, 0, 0, 0, 6, 8, 0
      | 10, 7, 0, 0, 0, 6, 3, 0, 0, 7, 0, 0, 0, 0, 0, 0, 3, 0, 0, 0, 0, 0, 0, 2, 2, 0, 9, 0, 0, 0
      | 0, 0, 0, 0, 0, 0, 0, 1, 10, 0, 6, 1, 0, 0, 0, 0, 0, 0, 9, 0, 0, 0, 0, 0, 0, 0, 0, 0, 0, 5
      | 0, 0, 0, 8, 0, 0, 0, 0, 0, 0, 0, 0, 3, 7, 0, 0, 0, 3, 0, 0, 0, 0, 9, 0, 0, 5, 0, 0, 0, 0 |];
suc = [ { 2 }, 
        { 3 }, 
        { 4 }, 
        { 5 }, 
        { 6 }, 
        { 7 }, 
        { 8 }, 
        { 9 }, 
        { 10 }, 
        { 11 }, 
        { 12 }, 
        { 13 }, 
        { 14 }, 
        { 15 }, 
        { 16 }, 
        { 17 }, 
        { 18 }, 
        { 19 }, 
        { 20 }, 
        { 21 }, 
        { 22 }, 
        { 23 }, 
        { 24 }, 
        { 25 }, 
        { 26 }, 
        { 27 }, 
        { 28 }, 
        { 29 }, 
        { 30 }, 
        {  }]; 
